124
100000
47393
24013
23350
30104
10108
4554
33668
13353
10576
10480
34035
8230
7551
1890
13295
25057
49221
23488
16047
49918
47496
32148
21518
21564
1950
41144
28690
34224
47937
37471
21576
5004
30852
46982
11637
27262
33523
20595
47326
25914
41263
20400
10701
41543
39000
17853
1577
36689
10315
11216
3849
6942
28980
33764
25048
3124
9204
14562
28483
45429
9916
41667
34778
40986
3447
41318
44985
31488
20985
21741
20943
14477
32835
43448
22251
28546
7372
40732
38658
5774
4147
7231
9643
36830
46403
10563
9
32555
11377
10556
33477
8300
15969
25460
49248
633
7609
46299
27572
37621
9144
38025
9778
10526
49110
3212
40128
2327
39682
22994
35500
27940
42324
33628
43982
44306
25537
21085
25060
11083
34751
4784
6153
6
